Gurobi Optimizer version 9.1.2 build v9.1.2rc0 (linux64)
Thread count: 36 physical cores, 72 logical processors, using up to 32 threads
Optimize a model with 12 rows, 57 columns and 590 nonzeros
Model fingerprint: 0xf32eec78
Model has 47 quadratic constraints
Coefficient statistics:
  Matrix range     [2e-05, 3e+00]
  QMatrix range    [1e+00, 1e+00]
  QLMatrix range   [1e+00, 1e+00]
  Objective range  [8e-03, 7e-01]
  Bounds range     [1e+00, 1e+00]
  RHS range        [1e+00, 1e+00]
Presolve removed 9 rows and 0 columns

Continuous model is non-convex -- solving as a MIP.

Presolve removed 9 rows and 0 columns
Presolve time: 0.00s
Presolved: 189 rows, 57 columns, 443 nonzeros
Presolved model has 47 bilinear constraint(s)
Variable types: 57 continuous, 0 integer (0 binary)

Root relaxation: objective -1.743721e+00, 44 iterations, 0.00 seconds

    Nodes    |    Current Node    |     Objective Bounds      |     Work
 Expl Unexpl |  Obj  Depth IntInf | Incumbent    BestBd   Gap | It/Node Time

     0     0   -1.74372    0   38          -   -1.74372      -     -    0s
H    0     0                       0.6147548   -1.74372   384%     -    0s
     0     0   -1.64739    0    1    0.61475   -1.64739   368%     -    0s
H    0     0                      -1.6450460   -1.64739  0.14%     -    0s
     0     0     cutoff    0        -1.64505   -1.64505  0.00%     -    0s

Cutting planes:
  RLT: 25
  BQP: 3

Explored 1 nodes (76 simplex iterations) in 0.01 seconds
Thread count was 32 (of 72 available processors)

Solution count 2: -1.64505 0.614755 
No other solutions better than -1.64505

Optimal solution found (tolerance 1.00e-04)
Best objective -1.645045978473e+00, best bound -1.645045978473e+00, gap 0.0000%

User-callback calls 78, time in user-callback 0.00 sec
Gurobi Optimizer version 9.1.2 build v9.1.2rc0 (linux64)
Thread count: 36 physical cores, 72 logical processors, using up to 32 threads
Optimize a model with 60 rows, 300 columns and 15500 nonzeros
Model fingerprint: 0x60e5f72b
Model has 250 quadratic constraints
Coefficient statistics:
  Matrix range     [1e-06, 4e+00]
  QMatrix range    [1e+00, 1e+00]
  QLMatrix range   [1e+00, 1e+00]
  Objective range  [2e-04, 9e-01]
  Bounds range     [1e+00, 1e+00]
  RHS range        [1e+00, 1e+00]
Presolve removed 12 rows and 0 columns

Continuous model is non-convex -- solving as a MIP.

Presolve removed 12 rows and 0 columns
Presolve time: 0.01s
Presolved: 1048 rows, 300 columns, 13860 nonzeros
Presolved model has 250 bilinear constraint(s)
Variable types: 300 continuous, 0 integer (0 binary)

Root relaxation: objective -1.206083e+01, 330 iterations, 0.02 seconds

    Nodes    |    Current Node    |     Objective Bounds      |     Work
 Expl Unexpl |  Obj  Depth IntInf | Incumbent    BestBd   Gap | It/Node Time

     0     0  -12.06083    0  214          -  -12.06083      -     -    0s
H    0     0                      -5.1921107  -12.06083   132%     -    0s
     0     0  -11.35142    0  113   -5.19211  -11.35142   119%     -    0s
H    0     0                      -8.2620255  -11.35142  37.4%     -    0s
     0     0  -11.30514    0  188   -8.26203  -11.30514  36.8%     -    0s
     0     0  -11.29284    0  160   -8.26203  -11.29284  36.7%     -    0s
     0     0  -11.28521    0  103   -8.26203  -11.28521  36.6%     -    0s
     0     0  -11.28132    0  103   -8.26203  -11.28132  36.5%     -    0s
     0     2  -11.28132    0  103   -8.26203  -11.28132  36.5%     -    0s
* 1588  1627              77     -10.4952784  -11.09988  5.76%  50.1    1s
* 2186  1962              51     -10.6738127  -10.99249  2.99%  51.5    2s
* 4461   850              90     -10.7116836  -10.99249  2.62%  56.5    3s
* 4462   809              90     -10.7116836  -10.99249  2.62%  56.5    3s
* 4463   769              89     -10.7116838  -10.99249  2.62%  56.5    3s
* 4609   679              73     -10.7139547  -10.99249  2.60%  56.0    3s
* 4689   639              77     -10.7139717  -10.99249  2.60%  55.5    3s
* 4690   605              78     -10.7139726  -10.99249  2.60%  55.5    3s
* 4871   539              82     -10.7140182  -10.99249  2.60%  55.5    3s
* 4872   539              82     -10.7140182  -10.99249  2.60%  55.5    3s
* 4873   539              81     -10.7140184  -10.99249  2.60%  55.5    3s
* 5064   579              77     -10.7140267  -10.99249  2.60%  55.3    4s
* 5083   579              75     -10.7140293  -10.99249  2.60%  55.1    4s
* 5203   568              77     -10.7140295  -10.99249  2.60%  55.0    4s
* 5204   568              77     -10.7140296  -10.99249  2.60%  55.0    4s
* 5257   573              80     -10.7140302  -10.99249  2.60%  54.8    4s
* 5258   573              80     -10.7140303  -10.99249  2.60%  54.8    4s
* 5440   583              88     -10.7140305  -10.99249  2.60%  54.8    4s
* 6118   599              78     -10.7140335  -10.99249  2.60%  54.7    4s
* 6609   580              59     -10.7142207  -10.97869  2.47%  54.3    4s
* 6615   580              60     -10.7142374  -10.97869  2.47%  54.2    4s
  7058   709     cutoff   20       -10.71424  -10.97082  2.39%  53.6    5s
* 7328   821              72     -10.7194655  -10.97082  2.34%  52.8    5s
* 7709   850              68     -10.7205761  -10.97082  2.33%  51.7    5s
* 7710   850              68     -10.7205848  -10.97082  2.33%  51.7    5s
* 8060   842              65     -10.7208082  -10.86192  1.32%  51.1    5s
* 8061   842              65     -10.7208136  -10.86192  1.32%  51.1    5s
* 8066   842              65     -10.7208137  -10.86192  1.32%  51.0    5s
* 9193  1034              58     -10.7210472  -10.85140  1.22%  49.3    5s
* 9200  1034              58     -10.7211097  -10.85140  1.22%  49.3    5s
* 9495  1125              59     -10.7214533  -10.85140  1.21%  48.7    5s
*10504  1279              57     -10.7216089  -10.78082  0.55%  47.3    5s
*10508  1279              57     -10.7216151  -10.78082  0.55%  47.3    5s
*11119  1368              56     -10.7216258  -10.78082  0.55%  46.0    6s
*11720  1531              56     -10.7217174  -10.78082  0.55%  44.7    6s
*11721  1531              56     -10.7217175  -10.78082  0.55%  44.7    6s
*11863  1788              60     -10.7223886  -10.74985  0.26%  44.4    6s
*11864  1788              60     -10.7223888  -10.74985  0.26%  44.4    6s
*12073  1788              66     -10.7224129  -10.74985  0.26%  43.8    6s
*12385  1788              61     -10.7226931  -10.74985  0.25%  43.2    6s
*12446  1788              76     -10.7228697  -10.74985  0.25%  43.0    6s
*12448  1788              77     -10.7228747  -10.74985  0.25%  43.0    6s
*12746  1954              68     -10.7232434  -10.74731  0.22%  42.3    6s
*12749  1954              68     -10.7232438  -10.74731  0.22%  42.3    6s
*13112  1954              75     -10.7232707  -10.74731  0.22%  41.6    6s
*13179  2004              64     -10.7243615  -10.74284  0.17%  41.4    6s
*13182  2004              65     -10.7243617  -10.74284  0.17%  41.4    6s
*13515  2004              56     -10.7250773  -10.74284  0.17%  40.7    6s
*13518  2004              56     -10.7250777  -10.74284  0.17%  40.7    6s
*14611  1968              64     -10.7251971  -10.73425  0.08%  38.7    6s
*14612  1968              62     -10.7257148  -10.73425  0.08%  38.7    6s
*14613  1968              61     -10.7257171  -10.73425  0.08%  38.7    6s
*15331  1856              61     -10.7258944  -10.73236  0.06%  37.4    6s
*16385  2014              68     -10.7259901  -10.72869  0.03%  35.5    6s
*16613  2014              63     -10.7260104  -10.72869  0.02%  35.2    6s
*16855  2014              62     -10.7263540  -10.72869  0.02%  34.7    6s
*16857  2014              63     -10.7263576  -10.72869  0.02%  34.7    6s
*17265  1864              61     -10.7264710  -10.72866  0.02%  34.1    7s
*17271  1864              62     -10.7264724  -10.72866  0.02%  34.1    7s
*17274  1864              62     -10.7264729  -10.72866  0.02%  34.1    7s
*17492  1864              65     -10.7264993  -10.72866  0.02%  33.8    7s
*17493  1864              65     -10.7265038  -10.72866  0.02%  33.8    7s
*17697  1864              59     -10.7268351  -10.72866  0.02%  33.5    7s
*19407   962              59     -10.7268352  -10.72744  0.01%  30.9    7s

Explored 19416 nodes (600980 simplex iterations) in 7.28 seconds
Thread count was 32 (of 72 available processors)

Solution count 10: -10.7268 -10.7265 -10.7265 ... -10.726

Optimal solution found (tolerance 1.00e-04)
Best objective -1.072683519935e+01, best bound -1.072743799435e+01, gap 0.0056%

User-callback calls 39749, time in user-callback 0.01 sec



objective value: -10.726835199352344
objective bound: -10.727437994345188
x_opt: [0.0806248444834867, 0.9999999999999999, 1.0, 0.0, 0.7182337242349197, 1.0, 1.0, 1.0, 0.0, 0.0, 1.0, 0.0, 0.0, 1.0, 1.0, 1.0, 1.0, 1.0, 0.003613825286632796, 0.0, 0.0, 1.0, 1.0, 1.0, 0.0764631130997769, 1.0, 1.0, 0.4284360627585008, 0.0, 0.8180459484876271, 0.14012427601089522, 1.0, 1.0, 1.0, 1.0, 1.0, 1.0, 0.00465527241750046, 0.9999999999999999, 1.0, 0.9367608483082333, 0.0, 1.0, 0.0, 0.20115152959580246, 0.8594082409359736, 0.7872889324147083, 1.0, 0.0, 1.0]
GUROBI solution time: 7.281024932861328

